15
1 3
2 7
3 2
4 7
5 7
6 7
7 8
8 6
9 7
10 9
11 4
12 10
13 4
14 5
56
0 1 37
1 0 37
0 2 32
2 0 32
0 3 91
3 0 91
0 4 35
4 0 35
0 5 11
5 0 11
0 6 6
6 0 6
0 7 68
7 0 68
0 8 66
8 0 66
0 9 7
9 0 7
0 10 31
10 0 31
0 11 18
11 0 18
0 12 80
12 0 80
0 13 76
13 0 76
0 14 35
14 0 35
1 4 81
1 6 58
1 12 17
2 5 25
2 7 16
2 8 74
2 13 14
3 7 85
3 8 27
3 10 42
3 11 43
5 6 58
5 8 18
5 9 38
5 11 27
5 12 47
5 13 59
7 8 55
7 10 76
7 14 71
8 9 24
8 13 29
9 13 45
10 13 19
10 14 55
11 14 4
12 13 65
13 14 53
